c Random generated cnf formula, satisfiable: false
p cnf 10 50
-2 1 8 0
-8 10 -4 0
-3 -7 -2 0
-9 -5 -2 0
6 9 3 0
2 -7 -6 0
-10 9 -8 0
-5 8 -7 0
10 -7 -4 0
-10 4 -2 0
9 6 -4 0
5 -10 7 0
-1 -2 -7 0
9 -4 2 0
-6 7 -9 0
1 -7 5 0
7 8 -9 0
9 10 2 0
-7 -3 -5 0
10 3 4 0
-9 -4 8 0
-5 -1 -9 0
4 6 2 0
4 -2 3 0
-9 8 -2 0
-9 -8 -1 0
-7 -3 -6 0
9 -6 2 0
3 5 -6 0
4 -2 8 0
3 -2 -9 0
7 -8 3 0
-1 5 9 0
-8 6 -5 0
-8 2 5 0
1 10 -5 0
-8 -5 7 0
5 9 -6 0
10 -6 1 0
4 -9 1 0
9 -4 2 0
-7 -4 5 0
-9 -8 2 0
4 9 -8 0
10 8 9 0
10 -4 9 0
-2 5 -1 0
-5 -1 -7 0
-10 -6 7 0
10 2 8 0
